#     initialization of LAMMPS
units               real
boundary            p p p
atom_style          full
atom_modify         sort 0 0.0
newton              on

variable            step equal step
variable            elapsed equal elapsed
variable            elaplong equal elaplong
variable            dt equal dt
variable            time equal time
variable            cpu equal cpu
variable            tpcpu equal tpcpu
variable            spcpu equal spcpu
variable            cpuremain equal cpuremain
variable            part equal part
variable            timeremain equal timeremain
variable            atoms equal atoms
variable            temp equal temp
variable            press equal press
variable            pe equal pe
variable            ke equal ke
variable            etotal equal etotal
variable            enthalpy equal enthalpy
variable            evdwl equal evdwl
variable            ecoul equal ecoul
variable            epair equal epair
variable            ebond equal ebond
variable            eangle equal eangle
variable            edihed equal edihed
variable            eimp equal eimp
variable            emol equal emol
variable            elong equal elong
variable            etail equal etail
variable            vol equal vol
variable            density equal density
variable            lx equal lx
variable            ly equal ly
variable            lz equal lz
variable            xlo equal xlo
variable            xhi equal xhi
variable            ylo equal ylo
variable            yhi equal yhi
variable            zlo equal zlo
variable            zhi equal zhi
variable            xy equal xy
variable            xz equal xz
variable            yz equal yz
variable            xlat equal xlat
variable            ylat equal ylat
variable            zlat equal zlat
variable            bonds equal bonds
variable            angles equal angles
variable            dihedrals equal dihedrals
variable            impropers equal impropers
variable            pxx equal pxx

#    define the style of forcefield
pair_style          lj/cut/coul/long 10.0
pair_modify         mix geometric tail yes shift no
kspace_style        ewald 1e-5

bond_style          harmonic
angle_style         harmonic
read_data           data.spcfw_nacl

bond_coeff   1      529.42  1.012
angle_coeff  1      37.34  113.24
pair_coeff   1 1    0.1553  3.166          # o
pair_coeff   2 2    0.0     0.0            # h
pair_coeff   3 3    0.002771988528 3.33045 # na
pair_coeff   4 4    0.117789914    4.41724 # cl

#     velocities
velocity            all create 298.15 219030252 mom yes rot no

# define groups
group nacl_group type 1 2
group water_group type 3 4

minimize 1.0e-4 1.0e-6 1000 1000

# NPT Dynamics
log                 npt.log
thermo              0
timestep            1.0
fix                 1 all npt temp 298.15 298.15 100.0 iso 1.0 1.0 100.0
fix                 2 all ave/time 10 250 2500 v_time v_temp v_press v_vol v_etotal v_ke v_pe v_epair off 2 title2 'tstep t T P V Etot Eke Epe Epair' file summary_npt_5_3.txt
fix                 3 all ave/time 50 1 50 v_time v_temp v_press v_vol v_etotal v_ke v_pe v_epair off 2 title1 '!MolSSI trajectory 1.0 LAMMPS, NpT 500 steps of 100.0 fs, T=298.15 K' title2 'tstep t T P V Etot Eke Epe Epair' file trajectory_npt_5_3.seamm_trj

#fix                 4 all momentum 10000 linear 1 1 1 # Set total linear momentum to zero every 10000 steps
dump                traj_npt all custom 10000 npt.trj id element mol x y z vx vy vz
fix                 5 all mdi
mdi
